c ind 96 95 94 93 92 91 90 89 88 87 86 85 84 83 82 81 80 79 78 77 76 75 74 73 72 71 70 69 68 67 66 65  0
c ind 222 221 220 219 218 217 216 215 214 213 212 211 210 209 208 207 206 205 204 203 202 201 200 199 198 197 196 195 194 193 192 191  0
c ind 159 158 157 156 155 154 153 152 151 150 149 148 147 146 145 144 143 142 141 140 139 138 137 136 135 134 133 132 131 130 129 128  0
c ind 33 32 31 30 29 28 27 26 25 24 23 22 21 20 19 18 17 16 15 14 13 12 11 10 9 8 7 6 5 4 3 2  0
p cnf 253 369
1 0
-64 0
-127 0
-190 0
-253 0
-2 -34 0
2 3 34 0
-3 -34 0
-4 -35 0
4 -34 35 0
-5 -36 0
5 -35 36 0
-6 -37 0
6 -36 37 0
-7 -38 0
7 -37 38 0
-8 -39 0
8 -38 39 0
-9 -40 0
9 -39 40 0
-10 -41 0
10 -40 41 0
-11 -42 0
11 -41 42 0
-12 -43 0
12 -42 43 0
-13 -44 0
13 -43 44 0
-14 -45 0
14 -44 45 0
-15 -46 0
15 -45 46 0
-16 -47 0
16 -46 47 0
-17 -48 0
17 -47 48 0
-18 -49 0
18 -48 49 0
-19 -50 0
19 -49 50 0
-20 -51 0
20 -50 51 0
-21 -52 0
21 -51 52 0
-22 -53 0
22 -52 53 0
-23 -54 0
23 -53 54 0
-24 -55 0
24 -54 55 0
-25 -56 0
25 -55 56 0
-26 -57 0
26 -56 57 0
-27 -58 0
27 -57 58 0
-28 -59 0
28 -58 59 0
-29 -60 0
29 -59 60 0
-30 -61 0
30 -60 61 0
-31 -62 0
31 -61 62 0
-32 -63 0
32 -62 63 0
33 -63 0
34 -35 0
35 -36 0
36 -37 0
37 -38 0
38 -39 0
39 -40 0
40 -41 0
41 -42 0
42 -43 0
43 -44 0
44 -45 0
45 -46 0
46 -47 0
47 -48 0
48 -49 0
49 -50 0
50 -51 0
51 -52 0
52 -53 0
53 -54 0
54 -55 0
55 -56 0
56 -57 0
57 -58 0
58 -59 0
59 -60 0
60 -61 0
61 -62 0
62 -63 0
-65 -97 0
65 66 97 0
-66 -97 0
-67 -98 0
67 -97 98 0
-68 -99 0
68 -98 99 0
-69 -100 0
69 -99 100 0
-70 -101 0
70 -100 101 0
-71 -102 0
71 -101 102 0
-72 -103 0
72 -102 103 0
-73 -104 0
73 -103 104 0
-74 -105 0
74 -104 105 0
-75 -106 0
75 -105 106 0
-76 -107 0
76 -106 107 0
-77 -108 0
77 -107 108 0
-78 -109 0
78 -108 109 0
-79 -110 0
79 -109 110 0
-80 -111 0
80 -110 111 0
-81 -112 0
81 -111 112 0
-82 -113 0
82 -112 113 0
-83 -114 0
83 -113 114 0
-84 -115 0
84 -114 115 0
-85 -116 0
85 -115 116 0
-86 -117 0
86 -116 117 0
-87 -118 0
87 -117 118 0
-88 -119 0
88 -118 119 0
-89 -120 0
89 -119 120 0
-90 -121 0
90 -120 121 0
-91 -122 0
91 -121 122 0
-92 -123 0
92 -122 123 0
-93 -124 0
93 -123 124 0
-94 -125 0
94 -124 125 0
-95 -126 0
95 -125 126 0
96 -126 0
97 -98 0
98 -99 0
99 -100 0
100 -101 0
101 -102 0
102 -103 0
103 -104 0
104 -105 0
105 -106 0
106 -107 0
107 -108 0
108 -109 0
109 -110 0
110 -111 0
111 -112 0
112 -113 0
113 -114 0
114 -115 0
115 -116 0
116 -117 0
117 -118 0
118 -119 0
119 -120 0
120 -121 0
121 -122 0
122 -123 0
123 -124 0
124 -125 0
125 -126 0
-128 -160 0
128 129 160 0
-129 -160 0
-130 -161 0
130 -160 161 0
-131 -162 0
131 -161 162 0
-132 -163 0
132 -162 163 0
-133 -164 0
133 -163 164 0
-134 -165 0
134 -164 165 0
-135 -166 0
135 -165 166 0
-136 -167 0
136 -166 167 0
-137 -168 0
137 -167 168 0
-138 -169 0
138 -168 169 0
-139 -170 0
139 -169 170 0
-140 -171 0
140 -170 171 0
-141 -172 0
141 -171 172 0
-142 -173 0
142 -172 173 0
-143 -174 0
143 -173 174 0
-144 -175 0
144 -174 175 0
-145 -176 0
145 -175 176 0
-146 -177 0
146 -176 177 0
-147 -178 0
147 -177 178 0
-148 -179 0
148 -178 179 0
-149 -180 0
149 -179 180 0
-150 -181 0
150 -180 181 0
-151 -182 0
151 -181 182 0
-152 -183 0
152 -182 183 0
-153 -184 0
153 -183 184 0
-154 -185 0
154 -184 185 0
-155 -186 0
155 -185 186 0
-156 -187 0
156 -186 187 0
-157 -188 0
157 -187 188 0
-158 -189 0
158 -188 189 0
159 -189 0
160 -161 0
161 -162 0
162 -163 0
163 -164 0
164 -165 0
165 -166 0
166 -167 0
167 -168 0
168 -169 0
169 -170 0
170 -171 0
171 -172 0
172 -173 0
173 -174 0
174 -175 0
175 -176 0
176 -177 0
177 -178 0
178 -179 0
179 -180 0
180 -181 0
181 -182 0
182 -183 0
183 -184 0
184 -185 0
185 -186 0
186 -187 0
187 -188 0
188 -189 0
-191 -223 0
191 192 223 0
-192 -223 0
-193 -224 0
193 -223 224 0
-194 -225 0
194 -224 225 0
-195 -226 0
195 -225 226 0
-196 -227 0
196 -226 227 0
-197 -228 0
197 -227 228 0
-198 -229 0
198 -228 229 0
-199 -230 0
199 -229 230 0
-200 -231 0
200 -230 231 0
-201 -232 0
201 -231 232 0
-202 -233 0
202 -232 233 0
-203 -234 0
203 -233 234 0
-204 -235 0
204 -234 235 0
-205 -236 0
205 -235 236 0
-206 -237 0
206 -236 237 0
-207 -238 0
207 -237 238 0
-208 -239 0
208 -238 239 0
-209 -240 0
209 -239 240 0
-210 -241 0
210 -240 241 0
-211 -242 0
211 -241 242 0
-212 -243 0
212 -242 243 0
-213 -244 0
213 -243 244 0
-214 -245 0
214 -244 245 0
-215 -246 0
215 -245 246 0
-216 -247 0
216 -246 247 0
-217 -248 0
217 -247 248 0
-218 -249 0
218 -248 249 0
-219 -250 0
219 -249 250 0
-220 -251 0
220 -250 251 0
-221 -252 0
221 -251 252 0
222 -252 0
223 -224 0
224 -225 0
225 -226 0
226 -227 0
227 -228 0
228 -229 0
229 -230 0
230 -231 0
231 -232 0
232 -233 0
233 -234 0
234 -235 0
235 -236 0
236 -237 0
237 -238 0
238 -239 0
239 -240 0
240 -241 0
241 -242 0
242 -243 0
243 -244 0
244 -245 0
245 -246 0
246 -247 0
247 -248 0
248 -249 0
249 -250 0
250 -251 0
251 -252 0
